*INCLUDE, INPUT=mesh.inp

*Heading
** Vulcain 2.1-like nozzle solid (CalculiX)

*MATERIAL, NAME={{material.name}}
*ELASTIC
{{material.young_modulus}}, {{material.poisson_ratio}}
*DENSITY
{{material.density}}
*CONDUCTIVITY
{{material.conductivity}}
*SPECIFIC HEAT
{{material.specific_heat}}
*EXPANSION
{{material.thermal_expansion}}
*PLASTIC
{{material.yield_strength}}, 0.0

*BOUNDARY, NSET=INLET
1, 1, 0.0
1, 2, 0.0
1, 3, 0.0

*SURFACE, NAME=NOZZLE_WALL, TYPE=ELEMENT
*SURFACE, NAME=COOLING_WALL, TYPE=ELEMENT

*STEP
*{{calculix.step_type}}
*COUPLING, SURFACE=NOZZLE_WALL, DOF=1,2,3
*COUPLING, SURFACE=COOLING_WALL, DOF=1,2,3
*END STEP
