*INCLUDE, INPUT=mesh.inp

*Heading
** Vulcain 2.1-like nozzle solid (CalculiX)

*MATERIAL, NAME=STEEL
*ELASTIC
210000, 0.3
*DENSITY
7850
*CONDUCTIVITY
45
*SPECIFIC HEAT
500
*EXPANSION
1.2e-05
*PLASTIC
250, 0.0

*BOUNDARY, NSET=INLET
1, 1, 0.0
1, 2, 0.0
1, 3, 0.0

*SURFACE, NAME=Nozzle_Outer_Wall_1, TYPE=ELEMENT
*SURFACE, NAME=Cooling_Channel_1_Entry_Wall, TYPE=ELEMENT

*STEP
*STATIC
*COUPLING, SURFACE=Nozzle_Outer_Wall_1, DOF=1,2,3
*COUPLING, SURFACE=Cooling_Channel_1_Entry_Wall, DOF=1,2,3
*END STEP
